c This is QMaxSAT 2017 based on 14.07
c This is Glucose 3.0
c This is MiniSat 2.2.0
c WARNING: for repeatability, setting FPU to use double precision
c card = mrwto, comp = 0, pmodel = 0, narr = 2, mct = 29, verb = 0
cr firstCPXsol 0 0 0
c top = 167313
c |  Number of variables:    22850                                            |
c |  Number of clauses:      7809820                                          |
c |  Weight of hard clauses: 167313                                           |
c |  Number of soft clauses: 1624                                             |
c |  Number of unit soft clauses: 1624                                        |
c |  Maximum Cardinality (by unit): 334624       (334624      )               |
c last restart ## conflicts  :  27 7592 
o 3920 | cpuTime 4.35508 s
c Sum of weights = 167312
c A number of soft clauses remained = 812
c MRWTO encoding for Pseudo-Boolean Constraints
c sizeMax=3920
c No.0 Divisor=16	generated by pow1
c No.1 Divisor=16	generated by pow1
c No.2 Divisor=16	generated by pow1
c p0= 16	p1= 16	p2= 16	
c number of digits = 4
c linkingVar[0].size = 16, linkingVar[1].size = 16, linkingVar[2].size = 16, linkingVar[3].size = 1, 
c Pseudo-Boolean Constraints: 21349 variables and 274981 clauses
c Sum of weights = 167312
c A number of soft clauses remained = 812
c MRWTO encoding for Pseudo-Boolean Constraints
c sizeMax=3920
c No.0 Divisor=16	generated by pow1
c No.1 Divisor=16	generated by pow1
c No.2 Divisor=16	generated by pow1
c p0= 16	p1= 16	p2= 16	
c number of digits = 4
c linkingVar[0].size = 16, linkingVar[1].size = 16, linkingVar[2].size = 16, linkingVar[3].size = 1, 
c Pseudo-Boolean Constraints: 21349 variables and 274981 clauses
c last restart ## conflicts  :  158 9607 
o 2850 | cpuTime 7.96265 s
c last restart ## conflicts  :  841 7327 
o 2459 | cpuTime 41.1317 s
c last restart ## conflicts  :  37 7226 
o 1987 | cpuTime 72.9119 s
c last restart ## conflicts  :  536 6558 
o 1886 | cpuTime 297.47 s
c last restart ## conflicts  :  499 9241 
o 1740 | cpuTime 313.522 s
c last restart ## conflicts  :  233 6312 
o 1715 | cpuTime 704.556 s
c last restart ## conflicts  :  2005 9247 
o 1704 | cpuTime 903.186 s
c last restart ## conflicts  :  1788 6575 
o 1666 | cpuTime 1308.25 s
c last restart ## conflicts  :  354 6266 
o 1641 | cpuTime 3134.52 s
c last restart ## conflicts  :  986 6286 
o 1597 | cpuTime 3447.26 s
s UNKNOWN
c Search is stopped by a limit (maybe time-limit)
cr positiVarArr: [ | 24@1(1->24) | 199@1(7->25) | 258@1(9->26) | 328@1(12->9) | 476@1(17->12) | 510@1(18->17) | 581@1(21->1) | 627@1(22->18) | 645@1(23->7) | 690@1(24->23) | 718@1(25->22) | 754@1(26->29) | 833@1(29->21) | 869@2(1->28) | 873@2(2->3) | 919@2(3->20) | 938@2(4->10) | 959@2(5->2) | 991@2(6->5) | 1045@2(8->1) | 1117@2(10->15) | 1144@2(11->13) | 1205@2(13->16) | 1229@2(14->11) | 1261@2(15->14) | 1295@2(16->19) | 1390@2(19->27) | 1396@2(20->4) | 1603@2(27->8) | 1630@2(28->6) | ]
cr the 1-th chain: [ 1->24->23->7->25->22->18->17->12->9->26->29->21->1 ] (#non-depot=12) {#cumul.=13}
cr the 2-th chain: [ 1->28->6->5->2->3->20->4->10->15->14->11->13->16->19->27->8->1 ] (#non-depot=16) {#cumul.=29}
c Latest Answer = 0 by 11 loops
c restarts              : 109449
c conflicts             : 16158288       (4501 /sec)
c decisions             : 133270329      (0.00 % random) (37120 /sec)
c propagations          : 15287628203    (4258062 /sec)
c conflict literals     : 2961188724     (15.79 % deleted)
c Memory used           : 1068.00 MB
c CPU time              : 3590.28 s
